-97.0 2.0 9.0 4.0 8.0 8.0 3.0 2.0 3.0 5.0 6.0 1.0 4.0 3.0 7.0 5.0 8.0 10.0 4.0 5.0 
2.0 -92.0 2.0 3.0 10.0 6.0 7.0 3.0 7.0 7.0 1.0 7.0 8.0 2.0 5.0 6.0 6.0 10.0 0.0 0.0 
9.0 2.0 -106.0 6.0 2.0 5.0 10.0 8.0 4.0 2.0 9.0 8.0 4.0 9.0 3.0 1.0 4.0 0.0 10.0 10.0 
4.0 3.0 6.0 -97.0 7.0 5.0 2.0 4.0 4.0 9.0 9.0 8.0 7.0 2.0 0.0 5.0 0.0 8.0 5.0 9.0 
8.0 10.0 2.0 7.0 -85.0 5.0 4.0 0.0 1.0 3.0 10.0 1.0 5.0 1.0 4.0 7.0 6.0 8.0 1.0 2.0 
8.0 6.0 5.0 5.0 5.0 -118.0 9.0 5.0 2.0 3.0 6.0 10.0 9.0 3.0 6.0 2.0 9.0 10.0 5.0 10.0 
3.0 7.0 10.0 2.0 4.0 9.0 -88.0 7.0 3.0 5.0 6.0 2.0 5.0 7.0 2.0 0.0 2.0 9.0 1.0 4.0 
2.0 3.0 8.0 4.0 0.0 5.0 7.0 -92.0 1.0 8.0 10.0 5.0 6.0 5.0 7.0 8.0 2.0 0.0 9.0 2.0 
3.0 7.0 4.0 4.0 1.0 2.0 3.0 1.0 -84.0 6.0 7.0 4.0 7.0 4.0 4.0 7.0 10.0 0.0 3.0 7.0 
5.0 7.0 2.0 9.0 3.0 3.0 5.0 8.0 6.0 -86.0 0.0 4.0 2.0 8.0 3.0 1.0 4.0 6.0 5.0 5.0 
6.0 1.0 9.0 9.0 10.0 6.0 6.0 10.0 7.0 0.0 -100.0 3.0 0.0 7.0 1.0 2.0 7.0 3.0 8.0 5.0 
1.0 7.0 8.0 8.0 1.0 10.0 2.0 5.0 4.0 4.0 3.0 -88.0 7.0 2.0 2.0 0.0 1.0 6.0 8.0 9.0 
4.0 8.0 4.0 7.0 5.0 9.0 5.0 6.0 7.0 2.0 0.0 7.0 -100.0 2.0 5.0 7.0 2.0 9.0 6.0 5.0 
3.0 2.0 9.0 2.0 1.0 3.0 7.0 5.0 4.0 8.0 7.0 2.0 2.0 -84.0 2.0 6.0 4.0 3.0 10.0 4.0 
7.0 5.0 3.0 0.0 4.0 6.0 2.0 7.0 4.0 3.0 1.0 2.0 5.0 2.0 -92.0 10.0 6.0 8.0 10.0 7.0 
5.0 6.0 1.0 5.0 7.0 2.0 0.0 8.0 7.0 1.0 2.0 0.0 7.0 6.0 10.0 -87.0 0.0 8.0 6.0 6.0 
8.0 6.0 4.0 0.0 6.0 9.0 2.0 2.0 10.0 4.0 7.0 1.0 2.0 4.0 6.0 0.0 -93.0 6.0 10.0 6.0 
10.0 10.0 0.0 8.0 8.0 10.0 9.0 0.0 0.0 6.0 3.0 6.0 9.0 3.0 8.0 8.0 6.0 -110.0 1.0 5.0 
4.0 0.0 10.0 5.0 1.0 5.0 1.0 9.0 3.0 5.0 8.0 8.0 6.0 10.0 10.0 6.0 10.0 1.0 -112.0 10.0 
5.0 0.0 10.0 9.0 2.0 10.0 4.0 2.0 7.0 5.0 5.0 9.0 5.0 4.0 7.0 6.0 6.0 5.0 10.0 -111.0 

